\ Model Master problem
\ LP format - for model browsing. Use MPS format to capture full model detail.
Minimize
  - 58.21197000000001 sa_0 + 29.7 sa_1 - 58.21197000000001 sa_2
   - 29.103 sa_3 + 29.7 sa_4 - 8.51399 sa_5 + 17.82 sa_6 + 29.7 sa_7
   - 7.7608 sa_8 + 13.86 sa_9 - 58.21197000000001 sa_10 + 17.82 sa_11
   - 8.5518 sa_12 + 29.7 sa_13 + 0.3 sa_14 + 0.3 sa_15 + 0.3 sa_16
   - 34.927182 sa_17 - 17.30459 sa_18 + 0.3 sa_19 - 29.103 sa_20
   - 27.163198 sa_21 - 26.1927 sa_22 - 29.103 sa_23
   - 58.21197000000001 sa_24 - 8.5518 sa_25 - 29.103 sa_26
   - 58.21197000000001 sa_33 - 58.21197000000001 sa_34
   - 58.21197000000001 sa_35 - 58.21197000000001 sa_36
   - 58.21197000000001 sa_37 - 58.21197000000001 sa_38
   - 58.21197000000001 sa_39 - 58.21197000000001 sa_40
   - 58.21197000000001 sa_41 - 58.21197000000001 sa_42
   - 58.21197000000001 sa_43 - 58.21197000000001 sa_44
   - 58.21197000000001 sa_45 - 58.21197000000001 sa_46
   - 58.21197000000001 sa_47 - 58.21197000000001 sa_48
   - 58.21197000000001 sa_49 - 58.21197000000001 sa_50
   - 58.21197000000001 sa_51 - 58.21197000000001 sa_52
   - 58.21197000000001 sa_53 - 58.21197000000001 sa_54
   - 58.21197000000001 sa_55 - 58.21197000000001 sa_56
   - 58.21197000000001 sa_57 - 58.21197000000001 sa_58
   - 58.21197000000001 sa_59 - 58.21197000000001 sa_60
   - 58.21197000000001 sa_61 - 58.21197000000001 sa_62
   - 58.21197000000001 sa_63 - 58.21197000000001 sa_64
   - 58.21197000000001 sa_65 - 58.21197000000001 sa_66
   - 58.21197000000001 sa_67 - 58.21197000000001 sa_68
   - 58.21197000000001 sa_69 - 58.21197000000001 sa_70
   - 58.21197000000001 sa_71 - 58.21197000000001 sa_72
   - 58.21197000000001 sa_73 - 58.21197000000001 sa_74
   - 58.21197000000001 sa_75 - 58.21197000000001 sa_76
   - 58.21197000000001 sa_77 - 58.21197000000001 sa_78
   - 58.21197000000001 sa_79 - 58.21197000000001 sa_80
   - 58.21197000000001 sa_81 - 58.21197000000001 sa_82
   - 58.21197000000001 sa_83 - 58.21197000000001 sa_84
   - 58.21197000000001 sa_85 - 58.21197000000001 sa_86
   - 58.21197000000001 sa_87 - 58.21197000000001 sa_88
   - 58.21197000000001 sa_89 - 58.21197000000001 sa_90
   - 58.21197000000001 sa_91 - 58.21197000000001 sa_92
   - 58.21197000000001 sa_93 - 58.21197000000001 sa_94
   - 58.21197000000001 sa_95 - 58.21197000000001 sa_96
   - 58.21197000000001 sa_97 - 58.21197000000001 sa_98
   - 58.21197000000001 sa_99 - 58.21197000000001 sa_100
   - 58.21197000000001 sa_101 - 58.21197000000001 sa_102
   - 58.21197000000001 sa_103 - 58.21197000000001 sa_104
   - 58.21197000000001 sa_105 - 58.21197000000001 sa_106
   - 58.21197000000001 sa_107 - 58.21197000000001 sa_108
   - 58.21197000000001 sa_109 - 58.21197000000001 sa_110
   - 58.21197000000001 sa_111 - 58.21197000000001 sa_112
   - 58.21197000000001 sa_113 - 58.21197000000001 sa_114
   - 58.21197000000001 sa_115 - 58.21197000000001 sa_116
   - 58.21197000000001 sa_117 - 58.21197000000001 sa_118
   - 58.21197000000001 sa_119 - 58.21197000000001 sa_120
   - 58.21197000000001 sa_121 - 58.21197000000001 sa_122
   - 58.21197000000001 sa_123 - 58.21197000000001 sa_124
   - 58.21197000000001 sa_125 - 58.21197000000001 sa_126
   - 58.21197000000001 sa_127 - 58.21197000000001 sa_128
   - 58.21197000000001 sa_129 - 58.21197000000001 sa_130
   - 58.21197000000001 sa_131 - 58.21197000000001 sa_132
   - 58.21197000000001 sa_133 - 58.21197000000001 sa_134
   - 58.21197000000001 sa_135 - 58.21197000000001 sa_136
   - 58.21197000000001 sa_137 - 58.21197000000001 sa_138
   - 58.21197000000001 sa_139 - 58.21197000000001 sa_140
   - 58.21197000000001 sa_141 - 58.21197000000001 sa_142
   - 58.21197000000001 sa_143 - 58.21197000000001 sa_144
   - 58.21197000000001 sa_145 - 58.21197000000001 sa_146
   - 58.21197000000001 sa_147 - 58.21197000000001 sa_148
   - 58.21197000000001 sa_149 - 58.21197000000001 sa_150
   - 58.21197000000001 sa_151 - 58.21197000000001 sa_152
   - 58.21197000000001 sa_153 - 58.21197000000001 sa_154
   - 58.21197000000001 sa_155 - 58.21197000000001 sa_156
   - 58.21197000000001 sa_157 - 58.21197000000001 sa_158
   - 58.21197000000001 sa_159 - 58.21197000000001 sa_160
   - 58.21197000000001 sa_161 - 58.21197000000001 sa_162
   - 58.21197000000001 sa_163 - 58.21197000000001 sa_164
   - 58.21197000000001 sa_165 - 58.21197000000001 sa_166
   - 58.21197000000001 sa_167 - 58.21197000000001 sa_168
   - 58.21197000000001 sa_169 - 58.21197000000001 sa_170
   - 58.21197000000001 sa_171 - 58.21197000000001 sa_172
   - 58.21197000000001 sa_173 - 58.21197000000001 sa_174
   - 58.21197000000001 sa_175 - 58.21197000000001 sa_176
   - 58.21197000000001 sa_177 - 58.21197000000001 sa_178
   - 58.21197000000001 sa_179 - 58.21197000000001 sa_180
   - 58.21197000000001 sa_181 - 58.21197000000001 sa_182
   - 58.21197000000001 sa_183 - 58.21197000000001 sa_184
   - 58.21197000000001 sa_185 - 58.21197000000001 sa_186
   - 58.21197000000001 sa_187 - 58.21197000000001 sa_188
   - 58.21197000000001 sa_189 - 58.21197000000001 sa_190
   - 58.21197000000001 sa_191 - 58.21197000000001 sa_192
   - 58.21197000000001 sa_193 - 58.21197000000001 sa_194
   - 58.21197000000001 sa_195 - 58.21197000000001 sa_196
   - 58.21197000000001 sa_197 - 58.21197000000001 sa_198
   - 58.21197000000001 sa_199 - 58.21197000000001 sa_200
   - 58.21197000000001 sa_201 - 58.21197000000001 sa_202
   - 58.21197000000001 sa_203 - 58.21197000000001 sa_204
   - 58.21197000000001 sa_205 - 58.21197000000001 sa_206
   - 58.21197000000001 sa_207 - 58.21197000000001 sa_208
   - 58.21197000000001 sa_209 - 58.21197000000001 sa_210
   - 58.21197000000001 sa_211 - 58.21197000000001 sa_212
   - 58.21197000000001 sa_213 - 58.21197000000001 sa_214
   - 58.21197000000001 sa_215 - 58.21197000000001 sa_216
   - 58.21197000000001 sa_217 - 58.21197000000001 sa_218
   - 58.21197000000001 sa_219 - 58.21197000000001 sa_220
   - 58.21197000000001 sa_221 - 58.21197000000001 sa_222
   - 58.21197000000001 sa_223 - 58.21197000000001 sa_224
   - 58.21197000000001 sa_225 - 58.21197000000001 sa_226
   - 58.21197000000001 sa_227 - 58.21197000000001 sa_228
   - 58.21197000000001 sa_229 - 58.21197000000001 sa_230
   - 58.21197000000001 sa_231 - 58.21197000000001 sa_232
   - 58.21197000000001 sa_233 - 58.21197000000001 sa_234
   - 58.21197000000001 sa_235 - 58.21197000000001 sa_236
   - 58.21197000000001 sa_237 - 58.21197000000001 sa_238
   - 58.21197000000001 sa_239 - 58.21197000000001 sa_240
   - 58.21197000000001 sa_241 - 58.21197000000001 sa_242
   - 58.21197000000001 sa_243 - 58.21197000000001 sa_244
   - 58.21197000000001 sa_245 - 58.21197000000001 sa_246
   - 58.21197000000001 sa_247 - 58.21197000000001 sa_248
   - 58.21197000000001 sa_249 - 58.21197000000001 sa_250
   - 58.21197000000001 sa_251 - 58.21197000000001 sa_252
   - 58.21197000000001 sa_253 - 58.21197000000001 sa_254
   - 58.21197000000001 sa_255
Subject To
 con_beta_0: 0.01 sa_0 + 0.01 sa_1 + 0.01 sa_2 + 0.01 sa_3 + 0.01 sa_4
   + 0.01 sa_5 + 0.01 sa_6 + 0.01 sa_7 + 0.01 sa_8 + 0.01 sa_9 + 0.01 sa_10
   + 0.01 sa_11 + 0.01 sa_12 + 0.01 sa_13 + 0.01 sa_14 + 0.01 sa_15
   + 0.01 sa_16 + 0.01 sa_17 + 0.01 sa_18 + 0.01 sa_19 + 0.01 sa_20
   + 0.01 sa_21 + 0.01 sa_22 + 0.01 sa_23 + 0.01 sa_24 + 0.01 sa_25
   + 0.01 sa_26 + 0.01 sa_27 + 0.01 sa_28 + 0.01 sa_29 + 0.01 sa_30
   + 0.01 sa_31 + 0.01 sa_33 + 0.01 sa_34 + 0.01 sa_35 + 0.01 sa_36
   + 0.01 sa_37 + 0.01 sa_38 + 0.01 sa_39 + 0.01 sa_40 + 0.01 sa_41
   + 0.01 sa_42 + 0.01 sa_43 + 0.01 sa_44 + 0.01 sa_45 + 0.01 sa_46
   + 0.01 sa_47 + 0.01 sa_48 + 0.01 sa_49 + 0.01 sa_50 + 0.01 sa_51
   + 0.01 sa_52 + 0.01 sa_53 + 0.01 sa_54 + 0.01 sa_55 + 0.01 sa_56
   + 0.01 sa_57 + 0.01 sa_58 + 0.01 sa_59 + 0.01 sa_60 + 0.01 sa_61
   + 0.01 sa_62 + 0.01 sa_63 + 0.01 sa_64 + 0.01 sa_65 + 0.01 sa_66
   + 0.01 sa_67 + 0.01 sa_68 + 0.01 sa_69 + 0.01 sa_70 + 0.01 sa_71
   + 0.01 sa_72 + 0.01 sa_73 + 0.01 sa_74 + 0.01 sa_75 + 0.01 sa_76
   + 0.01 sa_77 + 0.01 sa_78 + 0.01 sa_79 + 0.01 sa_80 + 0.01 sa_81
   + 0.01 sa_82 + 0.01 sa_83 + 0.01 sa_84 + 0.01 sa_85 + 0.01 sa_86
   + 0.01 sa_87 + 0.01 sa_88 + 0.01 sa_89 + 0.01 sa_90 + 0.01 sa_91
   + 0.01 sa_92 + 0.01 sa_93 + 0.01 sa_94 + 0.01 sa_95 + 0.01 sa_96
   + 0.01 sa_97 + 0.01 sa_98 + 0.01 sa_99 + 0.01 sa_100 + 0.01 sa_101
   + 0.01 sa_102 + 0.01 sa_103 + 0.01 sa_104 + 0.01 sa_105 + 0.01 sa_106
   + 0.01 sa_107 + 0.01 sa_108 + 0.01 sa_109 + 0.01 sa_110 + 0.01 sa_111
   + 0.01 sa_112 + 0.01 sa_113 + 0.01 sa_114 + 0.01 sa_115 + 0.01 sa_116
   + 0.01 sa_117 + 0.01 sa_118 + 0.01 sa_119 + 0.01 sa_120 + 0.01 sa_121
   + 0.01 sa_122 + 0.01 sa_123 + 0.01 sa_124 + 0.01 sa_125 + 0.01 sa_126
   + 0.01 sa_127 + 0.01 sa_128 + 0.01 sa_129 + 0.01 sa_130 + 0.01 sa_131
   + 0.01 sa_132 + 0.01 sa_133 + 0.01 sa_134 + 0.01 sa_135 + 0.01 sa_136
   + 0.01 sa_137 + 0.01 sa_138 + 0.01 sa_139 + 0.01 sa_140 + 0.01 sa_141
   + 0.01 sa_142 + 0.01 sa_143 + 0.01 sa_144 + 0.01 sa_145 + 0.01 sa_146
   + 0.01 sa_147 + 0.01 sa_148 + 0.01 sa_149 + 0.01 sa_150 + 0.01 sa_151
   + 0.01 sa_152 + 0.01 sa_153 + 0.01 sa_154 + 0.01 sa_155 + 0.01 sa_156
   + 0.01 sa_157 + 0.01 sa_158 + 0.01 sa_159 + 0.01 sa_160 + 0.01 sa_161
   + 0.01 sa_162 + 0.01 sa_163 + 0.01 sa_164 + 0.01 sa_165 + 0.01 sa_166
   + 0.01 sa_167 + 0.01 sa_168 + 0.01 sa_169 + 0.01 sa_170 + 0.01 sa_171
   + 0.01 sa_172 + 0.01 sa_173 + 0.01 sa_174 + 0.01 sa_175 + 0.01 sa_176
   + 0.01 sa_177 + 0.01 sa_178 + 0.01 sa_179 + 0.01 sa_180 + 0.01 sa_181
   + 0.01 sa_182 + 0.01 sa_183 + 0.01 sa_184 + 0.01 sa_185 + 0.01 sa_186
   + 0.01 sa_187 + 0.01 sa_188 + 0.01 sa_189 + 0.01 sa_190 + 0.01 sa_191
   + 0.01 sa_192 + 0.01 sa_193 + 0.01 sa_194 + 0.01 sa_195 + 0.01 sa_196
   + 0.01 sa_197 + 0.01 sa_198 + 0.01 sa_199 + 0.01 sa_200 + 0.01 sa_201
   + 0.01 sa_202 + 0.01 sa_203 + 0.01 sa_204 + 0.01 sa_205 + 0.01 sa_206
   + 0.01 sa_207 + 0.01 sa_208 + 0.01 sa_209 + 0.01 sa_210 + 0.01 sa_211
   + 0.01 sa_212 + 0.01 sa_213 + 0.01 sa_214 + 0.01 sa_215 + 0.01 sa_216
   + 0.01 sa_217 + 0.01 sa_218 + 0.01 sa_219 + 0.01 sa_220 + 0.01 sa_221
   + 0.01 sa_222 + 0.01 sa_223 + 0.01 sa_224 + 0.01 sa_225 + 0.01 sa_226
   + 0.01 sa_227 + 0.01 sa_228 + 0.01 sa_229 + 0.01 sa_230 + 0.01 sa_231
   + 0.01 sa_232 + 0.01 sa_233 + 0.01 sa_234 + 0.01 sa_235 + 0.01 sa_236
   + 0.01 sa_237 + 0.01 sa_238 + 0.01 sa_239 + 0.01 sa_240 + 0.01 sa_241
   + 0.01 sa_242 + 0.01 sa_243 + 0.01 sa_244 + 0.01 sa_245 + 0.01 sa_246
   + 0.01 sa_247 + 0.01 sa_248 + 0.01 sa_249 + 0.01 sa_250 + 0.01 sa_251
   + 0.01 sa_252 + 0.01 sa_253 + 0.01 sa_254 + 0.01 sa_255 = 1
 con_beta_ul_nco[PPE1]: 60 sa_0 + 60 sa_1 + 60 sa_2 + 60 sa_3 + 60 sa_4
   + 60 sa_5 + 60 sa_6 + 60 sa_7 + 60 sa_8 + 60 sa_9 + 60 sa_10 + 60 sa_11
   + 60 sa_12 + 60 sa_13 + 60 sa_14 + 60 sa_15 + 60 sa_16 + 60 sa_17
   + 60 sa_18 + 60 sa_19 + 60 sa_20 + 60 sa_21 + 60 sa_22 + 60 sa_23
   + 60 sa_24 + 60 sa_25 + 60 sa_26 + 60 sa_27 + 60 sa_28 + 60 sa_29
   + 60 sa_30 + 60 sa_31 + 60 sa_33 + 60 sa_34 + 60 sa_35 + 60 sa_36
   + 60 sa_37 + 60 sa_38 + 60 sa_39 + 60 sa_40 + 60 sa_41 + 60 sa_42
   + 60 sa_43 + 60 sa_44 + 60 sa_45 + 60 sa_46 + 60 sa_47 + 60 sa_48
   + 60 sa_49 + 60 sa_50 + 60 sa_51 + 60 sa_52 + 60 sa_53 + 60 sa_54
   + 60 sa_55 + 60 sa_56 + 60 sa_57 + 60 sa_58 + 60 sa_59 + 60 sa_60
   + 60 sa_61 + 60 sa_62 + 60 sa_63 + 60 sa_64 + 60 sa_65 + 60 sa_66
   + 60 sa_67 + 60 sa_68 + 60 sa_69 + 60 sa_70 + 60 sa_71 + 60 sa_72
   + 60 sa_73 + 60 sa_74 + 60 sa_75 + 60 sa_76 + 60 sa_77 + 60 sa_78
   + 60 sa_79 + 60 sa_80 + 60 sa_81 + 60 sa_82 + 60 sa_83 + 60 sa_84
   + 60 sa_85 + 60 sa_86 + 60 sa_87 + 60 sa_88 + 60 sa_89 + 60 sa_90
   + 60 sa_91 + 60 sa_92 + 60 sa_93 + 60 sa_94 + 60 sa_95 + 60 sa_96
   + 60 sa_97 + 60 sa_98 + 60 sa_99 + 60 sa_100 + 60 sa_101 + 60 sa_102
   + 60 sa_103 + 60 sa_104 + 60 sa_105 + 60 sa_106 + 60 sa_107 + 60 sa_108
   + 60 sa_109 + 60 sa_110 + 60 sa_111 + 60 sa_112 + 60 sa_113 + 60 sa_114
   + 60 sa_115 + 60 sa_116 + 60 sa_117 + 60 sa_118 + 60 sa_119 + 60 sa_120
   + 60 sa_121 + 60 sa_122 + 60 sa_123 + 60 sa_124 + 60 sa_125 + 60 sa_126
   + 60 sa_127 + 60 sa_128 + 60 sa_129 + 60 sa_130 + 60 sa_131 + 60 sa_132
   + 60 sa_133 + 60 sa_134 + 60 sa_135 + 60 sa_136 + 60 sa_137 + 60 sa_138
   + 60 sa_139 + 60 sa_140 + 60 sa_141 + 60 sa_142 + 60 sa_143 + 60 sa_144
   + 60 sa_145 + 60 sa_146 + 60 sa_147 + 60 sa_148 + 60 sa_149 + 60 sa_150
   + 60 sa_151 + 60 sa_152 + 60 sa_153 + 60 sa_154 + 60 sa_155 + 60 sa_156
   + 60 sa_157 + 60 sa_158 + 60 sa_159 + 60 sa_160 + 60 sa_161 + 60 sa_162
   + 60 sa_163 + 60 sa_164 + 60 sa_165 + 60 sa_166 + 60 sa_167 + 60 sa_168
   + 60 sa_169 + 60 sa_170 + 60 sa_171 + 60 sa_172 + 60 sa_173 + 60 sa_174
   + 60 sa_175 + 60 sa_176 + 60 sa_177 + 60 sa_178 + 60 sa_179 + 60 sa_180
   + 60 sa_181 + 60 sa_182 + 60 sa_183 + 60 sa_184 + 60 sa_185 + 60 sa_186
   + 60 sa_187 + 60 sa_188 + 60 sa_189 + 60 sa_190 + 60 sa_191 + 60 sa_192
   + 60 sa_193 + 60 sa_194 + 60 sa_195 + 60 sa_196 + 60 sa_197 + 60 sa_198
   + 60 sa_199 + 60 sa_200 + 60 sa_201 + 60 sa_202 + 60 sa_203 + 60 sa_204
   + 60 sa_205 + 60 sa_206 + 60 sa_207 + 60 sa_208 + 60 sa_209 + 60 sa_210
   + 60 sa_211 + 60 sa_212 + 60 sa_213 + 60 sa_214 + 60 sa_215 + 60 sa_216
   + 60 sa_217 + 60 sa_218 + 60 sa_219 + 60 sa_220 + 60 sa_221 + 60 sa_222
   + 60 sa_223 + 60 sa_224 + 60 sa_225 + 60 sa_226 + 60 sa_227 + 60 sa_228
   + 60 sa_229 + 60 sa_230 + 60 sa_231 + 60 sa_232 + 60 sa_233 + 60 sa_234
   + 60 sa_235 + 60 sa_236 + 60 sa_237 + 60 sa_238 + 60 sa_239 + 60 sa_240
   + 60 sa_241 + 60 sa_242 + 60 sa_243 + 60 sa_244 + 60 sa_245 + 60 sa_246
   + 60 sa_247 + 60 sa_248 + 60 sa_249 + 60 sa_250 + 60 sa_251 + 60 sa_252
   + 60 sa_253 + 60 sa_254 + 60 sa_255 >= 0
 con_beta_pw_0dkc[0,C1,P1,CPU1]: - 8.91 sa_0 + 21.09 sa_1 - 8.91 sa_2
   - 8.91 sa_3 - 8.91 sa_4 - 8.91 sa_5 - 8.91 sa_6 - 8.91 sa_7 - 8.91 sa_8
   - 8.91 sa_9 - 8.91 sa_10 - 8.91 sa_11 - 8.91 sa_12 - 8.91 sa_13
   - 8.91 sa_14 - 8.91 sa_15 - 8.91 sa_16 - 8.91 sa_17 - 8.91 sa_18
   - 8.91 sa_19 - 8.91 sa_20 - 8.91 sa_21 - 8.91 sa_22 - 8.91 sa_23
   - 8.91 sa_24 - 8.91 sa_25 - 8.91 sa_26 - 8.91 sa_27 - 8.91 sa_28
   - 8.91 sa_29 - 8.91 sa_30 - 8.91 sa_31 - 8.91 sa_33 - 8.91 sa_34
   - 8.91 sa_35 - 8.91 sa_36 - 8.91 sa_37 - 8.91 sa_38 - 8.91 sa_39
   - 8.91 sa_40 - 8.91 sa_41 - 8.91 sa_42 - 8.91 sa_43 - 8.91 sa_44
   - 8.91 sa_45 - 8.91 sa_46 - 8.91 sa_47 - 8.91 sa_48 - 8.91 sa_49
   - 8.91 sa_50 - 8.91 sa_51 - 8.91 sa_52 - 8.91 sa_53 - 8.91 sa_54
   - 8.91 sa_55 - 8.91 sa_56 - 8.91 sa_57 - 8.91 sa_58 - 8.91 sa_59
   - 8.91 sa_60 - 8.91 sa_61 - 8.91 sa_62 - 8.91 sa_63 - 8.91 sa_64
   - 8.91 sa_65 - 8.91 sa_66 - 8.91 sa_67 - 8.91 sa_68 - 8.91 sa_69
   - 8.91 sa_70 - 8.91 sa_71 - 8.91 sa_72 - 8.91 sa_73 - 8.91 sa_74
   - 8.91 sa_75 - 8.91 sa_76 - 8.91 sa_77 - 8.91 sa_78 - 8.91 sa_79
   - 8.91 sa_80 - 8.91 sa_81 - 8.91 sa_82 - 8.91 sa_83 - 8.91 sa_84
   - 8.91 sa_85 - 8.91 sa_86 - 8.91 sa_87 - 8.91 sa_88 - 8.91 sa_89
   - 8.91 sa_90 - 8.91 sa_91 - 8.91 sa_92 - 8.91 sa_93 - 8.91 sa_94
   - 8.91 sa_95 - 8.91 sa_96 - 8.91 sa_97 - 8.91 sa_98 - 8.91 sa_99
   - 8.91 sa_100 - 8.91 sa_101 - 8.91 sa_102 - 8.91 sa_103 - 8.91 sa_104
   - 8.91 sa_105 - 8.91 sa_106 - 8.91 sa_107 - 8.91 sa_108 - 8.91 sa_109
   - 8.91 sa_110 - 8.91 sa_111 - 8.91 sa_112 - 8.91 sa_113 - 8.91 sa_114
   - 8.91 sa_115 - 8.91 sa_116 - 8.91 sa_117 - 8.91 sa_118 - 8.91 sa_119
   - 8.91 sa_120 - 8.91 sa_121 - 8.91 sa_122 - 8.91 sa_123 - 8.91 sa_124
   - 8.91 sa_125 - 8.91 sa_126 - 8.91 sa_127 - 8.91 sa_128 - 8.91 sa_129
   - 8.91 sa_130 - 8.91 sa_131 - 8.91 sa_132 - 8.91 sa_133 - 8.91 sa_134
   - 8.91 sa_135 - 8.91 sa_136 - 8.91 sa_137 - 8.91 sa_138 - 8.91 sa_139
   - 8.91 sa_140 - 8.91 sa_141 - 8.91 sa_142 - 8.91 sa_143 - 8.91 sa_144
   - 8.91 sa_145 - 8.91 sa_146 - 8.91 sa_147 - 8.91 sa_148 - 8.91 sa_149
   - 8.91 sa_150 - 8.91 sa_151 - 8.91 sa_152 - 8.91 sa_153 - 8.91 sa_154
   - 8.91 sa_155 - 8.91 sa_156 - 8.91 sa_157 - 8.91 sa_158 - 8.91 sa_159
   - 8.91 sa_160 - 8.91 sa_161 - 8.91 sa_162 - 8.91 sa_163 - 8.91 sa_164
   - 8.91 sa_165 - 8.91 sa_166 - 8.91 sa_167 - 8.91 sa_168 - 8.91 sa_169
   - 8.91 sa_170 - 8.91 sa_171 - 8.91 sa_172 - 8.91 sa_173 - 8.91 sa_174
   - 8.91 sa_175 - 8.91 sa_176 - 8.91 sa_177 - 8.91 sa_178 - 8.91 sa_179
   - 8.91 sa_180 - 8.91 sa_181 - 8.91 sa_182 - 8.91 sa_183 - 8.91 sa_184
   - 8.91 sa_185 - 8.91 sa_186 - 8.91 sa_187 - 8.91 sa_188 - 8.91 sa_189
   - 8.91 sa_190 - 8.91 sa_191 - 8.91 sa_192 - 8.91 sa_193 - 8.91 sa_194
   - 8.91 sa_195 - 8.91 sa_196 - 8.91 sa_197 - 8.91 sa_198 - 8.91 sa_199
   - 8.91 sa_200 - 8.91 sa_201 - 8.91 sa_202 - 8.91 sa_203 - 8.91 sa_204
   - 8.91 sa_205 - 8.91 sa_206 - 8.91 sa_207 - 8.91 sa_208 - 8.91 sa_209
   - 8.91 sa_210 - 8.91 sa_211 - 8.91 sa_212 - 8.91 sa_213 - 8.91 sa_214
   - 8.91 sa_215 - 8.91 sa_216 - 8.91 sa_217 - 8.91 sa_218 - 8.91 sa_219
   - 8.91 sa_220 - 8.91 sa_221 - 8.91 sa_222 - 8.91 sa_223 - 8.91 sa_224
   - 8.91 sa_225 - 8.91 sa_226 - 8.91 sa_227 - 8.91 sa_228 - 8.91 sa_229
   - 8.91 sa_230 - 8.91 sa_231 - 8.91 sa_232 - 8.91 sa_233 - 8.91 sa_234
   - 8.91 sa_235 - 8.91 sa_236 - 8.91 sa_237 - 8.91 sa_238 - 8.91 sa_239
   - 8.91 sa_240 - 8.91 sa_241 - 8.91 sa_242 - 8.91 sa_243 - 8.91 sa_244
   - 8.91 sa_245 - 8.91 sa_246 - 8.91 sa_247 - 8.91 sa_248 - 8.91 sa_249
   - 8.91 sa_250 - 8.91 sa_251 - 8.91 sa_252 - 8.91 sa_253 - 8.91 sa_254
   - 8.91 sa_255 >= 10
 con_beta_pw_0dkc[0,C2,P1,CPU1]: >= 0
 con_beta_pw_1TLdkc[1,C1,P1,CPU1]: 30 sa_7 >= 5
 con_beta_pw_1TLdkc[1,C2,P1,CPU1]: >= 0
 con_beta_pw_TLMdkc[2,C1,P1,CPU1]: 14 sa_9 + 30 sa_13 >= 2.5
 con_beta_pw_TLMdkc[2,C2,P1,CPU1]: >= 0
 con_beta_pw_TLMdkc[3,C1,P1,CPU1]: 30 sa_4 >= 1.25
 con_beta_pw_TLMdkc[3,C2,P1,CPU1]: sa_5 + 10 sa_6 + 9 sa_12 >= 1.25
 con_beta_pw_Mdkc[4,C1,P1,CPU1]: 18 sa_11 >= 0.625
 con_beta_pw_Mdkc[4,C2,P1,CPU1]: 10 sa_5 + 8 sa_6 + 8 sa_18 + 9 sa_25
   >= 0.625
 con_beta_ps_t0dkc[1,0,C1,P1,CPU1]: 30 sa_31 >= 5
 con_beta_ps_t0dkc[1,0,C2,P1,CPU1]: >= 0
 con_beta_ps_t0dkc[2,0,C1,P1,CPU1]: 10 sa_2 + 10 sa_3 >= 2.5
 con_beta_ps_t0dkc[2,0,C2,P1,CPU1]: >= 0
 con_beta_ps_t0dkc[3,0,C1,P1,CPU1]: 18 sa_12 >= 1.25
 con_beta_ps_t0dkc[3,0,C2,P1,CPU1]: >= 0
 con_beta_ps_t1TLdkc[1,1,C1,P1,CPU1]: - 9.9 sa_2 - 9.9 sa_3 + 2 sa_5
   + 6 sa_6 + 6 sa_8 + 30 sa_27 >= 2.5
 con_beta_ps_t1TLdkc[1,1,C2,P1,CPU1]: >= 0
 con_beta_ps_t1TLdkc[2,1,C1,P1,CPU1]: 30 sa_16 + 10 sa_33 + 10 sa_34
   + 10 sa_35 + 10 sa_36 + 10 sa_37 + 10 sa_38 + 10 sa_39 + 10 sa_40
   + 10 sa_41 + 10 sa_42 + 10 sa_43 + 10 sa_44 + 10 sa_45 + 10 sa_46
   + 10 sa_47 + 10 sa_48 + 10 sa_49 + 10 sa_50 + 10 sa_51 + 10 sa_52
   + 10 sa_53 + 10 sa_54 + 10 sa_55 + 10 sa_56 + 10 sa_57 + 10 sa_58
   + 10 sa_59 + 10 sa_60 + 10 sa_61 + 10 sa_62 + 10 sa_63 + 10 sa_64
   + 10 sa_65 + 10 sa_66 + 10 sa_67 + 10 sa_68 + 10 sa_69 + 10 sa_70
   + 10 sa_71 + 10 sa_72 + 10 sa_73 + 10 sa_74 + 10 sa_75 + 10 sa_76
   + 10 sa_77 + 10 sa_78 + 10 sa_79 + 10 sa_80 + 10 sa_81 + 10 sa_82
   + 10 sa_83 + 10 sa_84 + 10 sa_85 + 10 sa_86 + 10 sa_87 + 10 sa_88
   + 10 sa_89 + 10 sa_90 + 10 sa_91 + 10 sa_92 + 10 sa_93 + 10 sa_94
   + 10 sa_95 + 10 sa_96 + 10 sa_97 + 10 sa_98 + 10 sa_99 + 10 sa_100
   + 10 sa_101 + 10 sa_102 + 10 sa_103 + 10 sa_104 + 10 sa_105 + 10 sa_106
   + 10 sa_107 + 10 sa_108 + 10 sa_109 + 10 sa_110 + 10 sa_111 + 10 sa_112
   + 10 sa_113 + 10 sa_114 + 10 sa_115 + 10 sa_116 + 10 sa_117 + 10 sa_118
   + 10 sa_119 + 10 sa_120 + 10 sa_121 + 10 sa_122 + 10 sa_123 + 10 sa_124
   + 10 sa_125 + 10 sa_126 + 10 sa_127 + 10 sa_128 + 10 sa_129 + 10 sa_130
   + 10 sa_131 + 10 sa_132 + 10 sa_133 + 10 sa_134 + 10 sa_135 + 10 sa_136
   + 10 sa_137 + 10 sa_138 + 10 sa_139 + 10 sa_140 + 10 sa_141 + 10 sa_142
   + 10 sa_143 + 10 sa_144 + 10 sa_145 + 10 sa_146 + 10 sa_147 + 10 sa_148
   + 10 sa_149 + 10 sa_150 + 10 sa_151 + 10 sa_152 + 10 sa_153 + 10 sa_154
   + 10 sa_155 + 10 sa_156 + 10 sa_157 + 10 sa_158 + 10 sa_159 + 10 sa_160
   + 10 sa_161 + 10 sa_162 + 10 sa_163 + 10 sa_164 + 10 sa_165 + 10 sa_166
   + 10 sa_167 + 10 sa_168 + 10 sa_169 + 10 sa_170 + 10 sa_171 + 10 sa_172
   + 10 sa_173 + 10 sa_174 + 10 sa_175 + 10 sa_176 + 10 sa_177 + 10 sa_178
   + 10 sa_179 + 10 sa_180 + 10 sa_181 + 10 sa_182 + 10 sa_183 + 10 sa_184
   + 10 sa_185 + 10 sa_186 + 10 sa_187 + 10 sa_188 + 10 sa_189 + 10 sa_190
   + 10 sa_191 + 10 sa_192 + 10 sa_193 + 10 sa_194 + 10 sa_195 + 10 sa_196
   + 10 sa_197 + 10 sa_198 + 10 sa_199 + 10 sa_200 + 10 sa_201 + 10 sa_202
   + 10 sa_203 + 10 sa_204 + 10 sa_205 + 10 sa_206 + 10 sa_207 + 10 sa_208
   + 10 sa_209 + 10 sa_210 + 10 sa_211 + 10 sa_212 + 10 sa_213 + 10 sa_214
   + 10 sa_215 + 10 sa_216 + 10 sa_217 + 10 sa_218 + 10 sa_219 + 10 sa_220
   + 10 sa_221 + 10 sa_222 + 10 sa_223 + 10 sa_224 + 10 sa_225 + 10 sa_226
   + 10 sa_227 + 10 sa_228 + 10 sa_229 + 10 sa_230 + 10 sa_231 + 10 sa_232
   + 10 sa_233 + 10 sa_234 + 10 sa_235 + 10 sa_236 + 10 sa_237 + 10 sa_238
   + 10 sa_239 + 10 sa_240 + 10 sa_241 + 10 sa_242 + 10 sa_243 + 10 sa_244
   + 10 sa_245 + 10 sa_246 + 10 sa_247 + 10 sa_248 + 10 sa_249 + 10 sa_250
   + 10 sa_251 + 10 sa_252 + 10 sa_253 + 10 sa_254 + 10 sa_255 >= 1.25
 con_beta_ps_t1TLdkc[2,1,C2,P1,CPU1]: >= 0
 con_beta_ps_t1TLdkc[3,1,C1,P1,CPU1]: 30 sa_23 + 18 sa_25 + 30 sa_26
   >= 0.625
 con_beta_ps_t1TLdkc[3,1,C2,P1,CPU1]: >= 0
 con_beta_ps_tTLMdkc[1,2,C1,P1,CPU1]: 30 sa_30 - 8.91 sa_33 - 8.91 sa_34
   - 8.91 sa_35 - 8.91 sa_36 - 8.91 sa_37 - 8.91 sa_38 - 8.91 sa_39
   - 8.91 sa_40 - 8.91 sa_41 - 8.91 sa_42 - 8.91 sa_43 - 8.91 sa_44
   - 8.91 sa_45 - 8.91 sa_46 - 8.91 sa_47 - 8.91 sa_48 - 8.91 sa_49
   - 8.91 sa_50 - 8.91 sa_51 - 8.91 sa_52 - 8.91 sa_53 - 8.91 sa_54
   - 8.91 sa_55 - 8.91 sa_56 - 8.91 sa_57 - 8.91 sa_58 - 8.91 sa_59
   - 8.91 sa_60 - 8.91 sa_61 - 8.91 sa_62 - 8.91 sa_63 - 8.91 sa_64
   - 8.91 sa_65 - 8.91 sa_66 - 8.91 sa_67 - 8.91 sa_68 - 8.91 sa_69
   - 8.91 sa_70 - 8.91 sa_71 - 8.91 sa_72 - 8.91 sa_73 - 8.91 sa_74
   - 8.91 sa_75 - 8.91 sa_76 - 8.91 sa_77 - 8.91 sa_78 - 8.91 sa_79
   - 8.91 sa_80 - 8.91 sa_81 - 8.91 sa_82 - 8.91 sa_83 - 8.91 sa_84
   - 8.91 sa_85 - 8.91 sa_86 - 8.91 sa_87 - 8.91 sa_88 - 8.91 sa_89
   - 8.91 sa_90 - 8.91 sa_91 - 8.91 sa_92 - 8.91 sa_93 - 8.91 sa_94
   - 8.91 sa_95 - 8.91 sa_96 - 8.91 sa_97 - 8.91 sa_98 - 8.91 sa_99
   - 8.91 sa_100 - 8.91 sa_101 - 8.91 sa_102 - 8.91 sa_103 - 8.91 sa_104
   - 8.91 sa_105 - 8.91 sa_106 - 8.91 sa_107 - 8.91 sa_108 - 8.91 sa_109
   - 8.91 sa_110 - 8.91 sa_111 - 8.91 sa_112 - 8.91 sa_113 - 8.91 sa_114
   - 8.91 sa_115 - 8.91 sa_116 - 8.91 sa_117 - 8.91 sa_118 - 8.91 sa_119
   - 8.91 sa_120 - 8.91 sa_121 - 8.91 sa_122 - 8.91 sa_123 - 8.91 sa_124
   - 8.91 sa_125 - 8.91 sa_126 - 8.91 sa_127 - 8.91 sa_128 - 8.91 sa_129
   - 8.91 sa_130 - 8.91 sa_131 - 8.91 sa_132 - 8.91 sa_133 - 8.91 sa_134
   - 8.91 sa_135 - 8.91 sa_136 - 8.91 sa_137 - 8.91 sa_138 - 8.91 sa_139
   - 8.91 sa_140 - 8.91 sa_141 - 8.91 sa_142 - 8.91 sa_143 - 8.91 sa_144
   - 8.91 sa_145 - 8.91 sa_146 - 8.91 sa_147 - 8.91 sa_148 - 8.91 sa_149
   - 8.91 sa_150 - 8.91 sa_151 - 8.91 sa_152 - 8.91 sa_153 - 8.91 sa_154
   - 8.91 sa_155 - 8.91 sa_156 - 8.91 sa_157 - 8.91 sa_158 - 8.91 sa_159
   - 8.91 sa_160 - 8.91 sa_161 - 8.91 sa_162 - 8.91 sa_163 - 8.91 sa_164
   - 8.91 sa_165 - 8.91 sa_166 - 8.91 sa_167 - 8.91 sa_168 - 8.91 sa_169
   - 8.91 sa_170 - 8.91 sa_171 - 8.91 sa_172 - 8.91 sa_173 - 8.91 sa_174
   - 8.91 sa_175 - 8.91 sa_176 - 8.91 sa_177 - 8.91 sa_178 - 8.91 sa_179
   - 8.91 sa_180 - 8.91 sa_181 - 8.91 sa_182 - 8.91 sa_183 - 8.91 sa_184
   - 8.91 sa_185 - 8.91 sa_186 - 8.91 sa_187 - 8.91 sa_188 - 8.91 sa_189
   - 8.91 sa_190 - 8.91 sa_191 - 8.91 sa_192 - 8.91 sa_193 - 8.91 sa_194
   - 8.91 sa_195 - 8.91 sa_196 - 8.91 sa_197 - 8.91 sa_198 - 8.91 sa_199
   - 8.91 sa_200 - 8.91 sa_201 - 8.91 sa_202 - 8.91 sa_203 - 8.91 sa_204
   - 8.91 sa_205 - 8.91 sa_206 - 8.91 sa_207 - 8.91 sa_208 - 8.91 sa_209
   - 8.91 sa_210 - 8.91 sa_211 - 8.91 sa_212 - 8.91 sa_213 - 8.91 sa_214
   - 8.91 sa_215 - 8.91 sa_216 - 8.91 sa_217 - 8.91 sa_218 - 8.91 sa_219
   - 8.91 sa_220 - 8.91 sa_221 - 8.91 sa_222 - 8.91 sa_223 - 8.91 sa_224
   - 8.91 sa_225 - 8.91 sa_226 - 8.91 sa_227 - 8.91 sa_228 - 8.91 sa_229
   - 8.91 sa_230 - 8.91 sa_231 - 8.91 sa_232 - 8.91 sa_233 - 8.91 sa_234
   - 8.91 sa_235 - 8.91 sa_236 - 8.91 sa_237 - 8.91 sa_238 - 8.91 sa_239
   - 8.91 sa_240 - 8.91 sa_241 - 8.91 sa_242 - 8.91 sa_243 - 8.91 sa_244
   - 8.91 sa_245 - 8.91 sa_246 - 8.91 sa_247 - 8.91 sa_248 - 8.91 sa_249
   - 8.91 sa_250 - 8.91 sa_251 - 8.91 sa_252 - 8.91 sa_253 - 8.91 sa_254
   - 8.91 sa_255 >= 1.25
 con_beta_ps_tTLMdkc[1,2,C2,P1,CPU1]: - 0.99 sa_33 - 0.99 sa_34
   - 0.99 sa_35 - 0.99 sa_36 - 0.99 sa_37 - 0.99 sa_38 - 0.99 sa_39
   - 0.99 sa_40 - 0.99 sa_41 - 0.99 sa_42 - 0.99 sa_43 - 0.99 sa_44
   - 0.99 sa_45 - 0.99 sa_46 - 0.99 sa_47 - 0.99 sa_48 - 0.99 sa_49
   - 0.99 sa_50 - 0.99 sa_51 - 0.99 sa_52 - 0.99 sa_53 - 0.99 sa_54
   - 0.99 sa_55 - 0.99 sa_56 - 0.99 sa_57 - 0.99 sa_58 - 0.99 sa_59
   - 0.99 sa_60 - 0.99 sa_61 - 0.99 sa_62 - 0.99 sa_63 - 0.99 sa_64
   - 0.99 sa_65 - 0.99 sa_66 - 0.99 sa_67 - 0.99 sa_68 - 0.99 sa_69
   - 0.99 sa_70 - 0.99 sa_71 - 0.99 sa_72 - 0.99 sa_73 - 0.99 sa_74
   - 0.99 sa_75 - 0.99 sa_76 - 0.99 sa_77 - 0.99 sa_78 - 0.99 sa_79
   - 0.99 sa_80 - 0.99 sa_81 - 0.99 sa_82 - 0.99 sa_83 - 0.99 sa_84
   - 0.99 sa_85 - 0.99 sa_86 - 0.99 sa_87 - 0.99 sa_88 - 0.99 sa_89
   - 0.99 sa_90 - 0.99 sa_91 - 0.99 sa_92 - 0.99 sa_93 - 0.99 sa_94
   - 0.99 sa_95 - 0.99 sa_96 - 0.99 sa_97 - 0.99 sa_98 - 0.99 sa_99
   - 0.99 sa_100 - 0.99 sa_101 - 0.99 sa_102 - 0.99 sa_103 - 0.99 sa_104
   - 0.99 sa_105 - 0.99 sa_106 - 0.99 sa_107 - 0.99 sa_108 - 0.99 sa_109
   - 0.99 sa_110 - 0.99 sa_111 - 0.99 sa_112 - 0.99 sa_113 - 0.99 sa_114
   - 0.99 sa_115 - 0.99 sa_116 - 0.99 sa_117 - 0.99 sa_118 - 0.99 sa_119
   - 0.99 sa_120 - 0.99 sa_121 - 0.99 sa_122 - 0.99 sa_123 - 0.99 sa_124
   - 0.99 sa_125 - 0.99 sa_126 - 0.99 sa_127 - 0.99 sa_128 - 0.99 sa_129
   - 0.99 sa_130 - 0.99 sa_131 - 0.99 sa_132 - 0.99 sa_133 - 0.99 sa_134
   - 0.99 sa_135 - 0.99 sa_136 - 0.99 sa_137 - 0.99 sa_138 - 0.99 sa_139
   - 0.99 sa_140 - 0.99 sa_141 - 0.99 sa_142 - 0.99 sa_143 - 0.99 sa_144
   - 0.99 sa_145 - 0.99 sa_146 - 0.99 sa_147 - 0.99 sa_148 - 0.99 sa_149
   - 0.99 sa_150 - 0.99 sa_151 - 0.99 sa_152 - 0.99 sa_153 - 0.99 sa_154
   - 0.99 sa_155 - 0.99 sa_156 - 0.99 sa_157 - 0.99 sa_158 - 0.99 sa_159
   - 0.99 sa_160 - 0.99 sa_161 - 0.99 sa_162 - 0.99 sa_163 - 0.99 sa_164
   - 0.99 sa_165 - 0.99 sa_166 - 0.99 sa_167 - 0.99 sa_168 - 0.99 sa_169
   - 0.99 sa_170 - 0.99 sa_171 - 0.99 sa_172 - 0.99 sa_173 - 0.99 sa_174
   - 0.99 sa_175 - 0.99 sa_176 - 0.99 sa_177 - 0.99 sa_178 - 0.99 sa_179
   - 0.99 sa_180 - 0.99 sa_181 - 0.99 sa_182 - 0.99 sa_183 - 0.99 sa_184
   - 0.99 sa_185 - 0.99 sa_186 - 0.99 sa_187 - 0.99 sa_188 - 0.99 sa_189
   - 0.99 sa_190 - 0.99 sa_191 - 0.99 sa_192 - 0.99 sa_193 - 0.99 sa_194
   - 0.99 sa_195 - 0.99 sa_196 - 0.99 sa_197 - 0.99 sa_198 - 0.99 sa_199
   - 0.99 sa_200 - 0.99 sa_201 - 0.99 sa_202 - 0.99 sa_203 - 0.99 sa_204
   - 0.99 sa_205 - 0.99 sa_206 - 0.99 sa_207 - 0.99 sa_208 - 0.99 sa_209
   - 0.99 sa_210 - 0.99 sa_211 - 0.99 sa_212 - 0.99 sa_213 - 0.99 sa_214
   - 0.99 sa_215 - 0.99 sa_216 - 0.99 sa_217 - 0.99 sa_218 - 0.99 sa_219
   - 0.99 sa_220 - 0.99 sa_221 - 0.99 sa_222 - 0.99 sa_223 - 0.99 sa_224
   - 0.99 sa_225 - 0.99 sa_226 - 0.99 sa_227 - 0.99 sa_228 - 0.99 sa_229
   - 0.99 sa_230 - 0.99 sa_231 - 0.99 sa_232 - 0.99 sa_233 - 0.99 sa_234
   - 0.99 sa_235 - 0.99 sa_236 - 0.99 sa_237 - 0.99 sa_238 - 0.99 sa_239
   - 0.99 sa_240 - 0.99 sa_241 - 0.99 sa_242 - 0.99 sa_243 - 0.99 sa_244
   - 0.99 sa_245 - 0.99 sa_246 - 0.99 sa_247 - 0.99 sa_248 - 0.99 sa_249
   - 0.99 sa_250 - 0.99 sa_251 - 0.99 sa_252 - 0.99 sa_253 - 0.99 sa_254
   - 0.99 sa_255 >= 0
 con_beta_ps_tTLMdkc[1,3,C1,P1,CPU1]: 30 sa_29 >= 0.625
 con_beta_ps_tTLMdkc[1,3,C2,P1,CPU1]: 2 sa_9 + 9 sa_11 + 9 sa_17 >= 0.625
 con_beta_ps_tTLMdkc[2,2,C1,P1,CPU1]: 30 sa_19 >= 0.625
 con_beta_ps_tTLMdkc[2,2,C2,P1,CPU1]: >= 0
 con_beta_ps_tTLMdkc[2,3,C1,P1,CPU1]: 30 sa_14 >= 0.3125
 con_beta_ps_tTLMdkc[2,3,C2,P1,CPU1]: 7 sa_10 >= 0.3125
 con_beta_ps_tTLMdkc[3,2,C1,P1,CPU1]: 30 sa_3 >= 0.3125
 con_beta_ps_tTLMdkc[3,2,C2,P1,CPU1]: >= 0
 con_beta_ps_tTLMdkc[3,3,C1,P1,CPU1]: 30 sa_20 + 14 sa_21 >= 0.15625
 con_beta_ps_tTLMdkc[3,3,C2,P1,CPU1]: 8 sa_8 >= 0.15625
 con_beta_ps_tMdkc[1,4,C1,P1,CPU1]: 30 sa_28 >= 0.3125
 con_beta_ps_tMdkc[1,4,C2,P1,CPU1]: 10 sa_8 + 10 sa_9 - 6.93 sa_10
   - 6.93 sa_23 - 6.93 sa_28 >= 0.3125
 con_beta_ps_tMdkc[2,4,C1,P1,CPU1]: 30 sa_15 >= 0.15625
 con_beta_ps_tMdkc[2,4,C2,P1,CPU1]: 7 sa_23 + 7 sa_28 >= 0.15625
 con_beta_ps_tMdkc[3,4,C1,P1,CPU1]: 6 sa_18 + 18 sa_22 >= 0.078125
 con_beta_ps_tMdkc[3,4,C2,P1,CPU1]: 10 sa_21 + 9 sa_22 >= 0.078125
 con_beta_ps_Tmdkc[4,0,C1,P1,CPU1]: 30 sa_10 >= 0.625
 con_beta_ps_Tmdkc[4,0,C2,P1,CPU1]: >= 0
 con_beta_ps_Tmdkc[4,1,C1,P1,CPU1]: 30 sa_2 + 30 sa_33 + 30 sa_34
   + 30 sa_35 + 30 sa_36 + 30 sa_37 + 30 sa_38 + 30 sa_39 + 30 sa_40
   + 30 sa_41 + 30 sa_42 + 30 sa_43 + 30 sa_44 + 30 sa_45 + 30 sa_46
   + 30 sa_47 + 30 sa_48 + 30 sa_49 + 30 sa_50 + 30 sa_51 + 30 sa_52
   + 30 sa_53 + 30 sa_54 + 30 sa_55 + 30 sa_56 + 30 sa_57 + 30 sa_58
   + 30 sa_59 + 30 sa_60 + 30 sa_61 + 30 sa_62 + 30 sa_63 + 30 sa_64
   + 30 sa_65 + 30 sa_66 + 30 sa_67 + 30 sa_68 + 30 sa_69 + 30 sa_70
   + 30 sa_71 + 30 sa_72 + 30 sa_73 + 30 sa_74 + 30 sa_75 + 30 sa_76
   + 30 sa_77 + 30 sa_78 + 30 sa_79 + 30 sa_80 + 30 sa_81 + 30 sa_82
   + 30 sa_83 + 30 sa_84 + 30 sa_85 + 30 sa_86 + 30 sa_87 + 30 sa_88
   + 30 sa_89 + 30 sa_90 + 30 sa_91 + 30 sa_92 + 30 sa_93 + 30 sa_94
   + 30 sa_95 + 30 sa_96 + 30 sa_97 + 30 sa_98 + 30 sa_99 + 30 sa_100
   + 30 sa_101 + 30 sa_102 + 30 sa_103 + 30 sa_104 + 30 sa_105 + 30 sa_106
   + 30 sa_107 + 30 sa_108 + 30 sa_109 + 30 sa_110 + 30 sa_111 + 30 sa_112
   + 30 sa_113 + 30 sa_114 + 30 sa_115 + 30 sa_116 + 30 sa_117 + 30 sa_118
   + 30 sa_119 + 30 sa_120 + 30 sa_121 + 30 sa_122 + 30 sa_123 + 30 sa_124
   + 30 sa_125 + 30 sa_126 + 30 sa_127 + 30 sa_128 + 30 sa_129 + 30 sa_130
   + 30 sa_131 + 30 sa_132 + 30 sa_133 + 30 sa_134 + 30 sa_135 + 30 sa_136
   + 30 sa_137 + 30 sa_138 + 30 sa_139 + 30 sa_140 + 30 sa_141 + 30 sa_142
   + 30 sa_143 + 30 sa_144 + 30 sa_145 + 30 sa_146 + 30 sa_147 + 30 sa_148
   + 30 sa_149 + 30 sa_150 + 30 sa_151 + 30 sa_152 + 30 sa_153 + 30 sa_154
   + 30 sa_155 + 30 sa_156 + 30 sa_157 + 30 sa_158 + 30 sa_159 + 30 sa_160
   + 30 sa_161 + 30 sa_162 + 30 sa_163 + 30 sa_164 + 30 sa_165 + 30 sa_166
   + 30 sa_167 + 30 sa_168 + 30 sa_169 + 30 sa_170 + 30 sa_171 + 30 sa_172
   + 30 sa_173 + 30 sa_174 + 30 sa_175 + 30 sa_176 + 30 sa_177 + 30 sa_178
   + 30 sa_179 + 30 sa_180 + 30 sa_181 + 30 sa_182 + 30 sa_183 + 30 sa_184
   + 30 sa_185 + 30 sa_186 + 30 sa_187 + 30 sa_188 + 30 sa_189 + 30 sa_190
   + 30 sa_191 + 30 sa_192 + 30 sa_193 + 30 sa_194 + 30 sa_195 + 30 sa_196
   + 30 sa_197 + 30 sa_198 + 30 sa_199 + 30 sa_200 + 30 sa_201 + 30 sa_202
   + 30 sa_203 + 30 sa_204 + 30 sa_205 + 30 sa_206 + 30 sa_207 + 30 sa_208
   + 30 sa_209 + 30 sa_210 + 30 sa_211 + 30 sa_212 + 30 sa_213 + 30 sa_214
   + 30 sa_215 + 30 sa_216 + 30 sa_217 + 30 sa_218 + 30 sa_219 + 30 sa_220
   + 30 sa_221 + 30 sa_222 + 30 sa_223 + 30 sa_224 + 30 sa_225 + 30 sa_226
   + 30 sa_227 + 30 sa_228 + 30 sa_229 + 30 sa_230 + 30 sa_231 + 30 sa_232
   + 30 sa_233 + 30 sa_234 + 30 sa_235 + 30 sa_236 + 30 sa_237 + 30 sa_238
   + 30 sa_239 + 30 sa_240 + 30 sa_241 + 30 sa_242 + 30 sa_243 + 30 sa_244
   + 30 sa_245 + 30 sa_246 + 30 sa_247 + 30 sa_248 + 30 sa_249 + 30 sa_250
   + 30 sa_251 + 30 sa_252 + 30 sa_253 + 30 sa_254 + 30 sa_255 >= 0.3125
 con_beta_ps_Tmdkc[4,1,C2,P1,CPU1]: >= 0
 con_beta_ps_Tmdkc[4,2,C1,P1,CPU1]: 30 sa_0 >= 0.15625
 con_beta_ps_Tmdkc[4,2,C2,P1,CPU1]: >= 0
 con_beta_ps_Tmdkc[4,3,C1,P1,CPU1]: 18 sa_17 >= 0.078125
 con_beta_ps_Tmdkc[4,3,C2,P1,CPU1]: 10 sa_5 >= 0.078125
 con_beta_ps_Tmdkc[4,4,C1,P1,CPU1]: 30 sa_24 >= 0.0390625
 con_beta_ps_Tmdkc[4,4,C2,P1,CPU1]: 10 sa_18 + 2 sa_21 >= 0.0390625
Bounds
End
